B=4;
D=1;
P=7;
S=7;
demands = [4 1 3 1 1 3 3 ];
capacities = [9 9 5 4 6 6 8 ];
dist_start = [6 9 9 6 9 8 6 ];
dist = [8 8 4 4 9 4 5 2 1 9 2 9 9 5 6 2 3 9 3 4 9 7 8 4 8 9 1 6 6 6 10 3 4 3 6 4 8 2 7 9 1 8 9 9 4 6 2 8 4 ];
